(set-info :smt-lib-version 2.6)
(set-logic ALIA)
(set-info :source |
Generated by the tool Ultimate Automizer [1,2] which implements
an automata theoretic approach [3] to software verification.

This SMT script belongs to a set of SMT scripts that was generated by
applying Ultimate Automizer to benchmarks [4] from the SV-COMP 2023 [5,6].
This script may not contain all SMT commands that Ultimate Automizer
issued. In order to meet the restrictions for SMT-COMP benchmarks 
we dropped the commands for getting values (resp. models), 
unsatisfiable cores, and interpolants.

2023-03-21, Matthias Heizmann (heizmann@informatik.uni-freiburg.de)

[1] https://ultimate.informatik.uni-freiburg.de/automizer/
[2] Matthias Heizmann, Max Barth, Daniel Dietsch, Leonard Fichtner,
     Jochen Hoenicke, Dominik Klumpp, Mehdi Naouar, Tanja Schindler,
     Frank Schüssele, Andreas Podelski: Ultimate Automizer and the
     CommuHash Normal Form (Competition Contribution). TACAS 2023
[3] Matthias Heizmann, Jochen Hoenicke, Andreas Podelski: Software Model
     Checking for People Who Love Automata. CAV 2013
[4] https://github.com/sosy-lab/sv-benchmarks
[5] Dirk Beyer: Competition on Software Verification and
     Witness Validation: SV-COMP 2023.  TACAS 2023
[6] https://sv-comp.sosy-lab.org/2023/
|)
(set-info :license "https://creativecommons.org/licenses/by/4.0/")
(set-info :category "industrial")
(set-info :status unknown)
(declare-fun ~unnamed0~0~P_ALL () Int)
(declare-fun ~unnamed0~0~P_PID () Int)
(declare-fun ~unnamed0~0~P_PGID () Int)
(declare-fun |c_#memory_int| () (Array Int (Array Int Int)))
(declare-fun |c_ULTIMATE.start_main_~data_init~0#1| () Int)
(declare-fun |c_ULTIMATE.start_sll_circular_create_~last~0#1.offset| () Int)
(declare-fun |c_ULTIMATE.start_sll_circular_create_~head~0#1.base| () Int)
(declare-fun |c_ULTIMATE.start_sll_circular_create_~head~0#1.offset| () Int)
(assert (= ~unnamed0~0~P_ALL 0))
(assert (= ~unnamed0~0~P_PID 1))
(assert (= 2 ~unnamed0~0~P_PGID))
(assert (let ((.cse8 (= |c_ULTIMATE.start_sll_circular_create_~last~0#1.offset| 0)) (.cse1 (+ |c_ULTIMATE.start_sll_circular_create_~head~0#1.offset| 8))) (and (forall ((|ULTIMATE.start_sll_circular_create_~new_head~0#1.base| Int)) (or (= |ULTIMATE.start_sll_circular_create_~new_head~0#1.base| |c_ULTIMATE.start_sll_circular_create_~head~0#1.base|) (forall ((|ULTIMATE.start_sll_circular_create_~last~0#1.base| Int)) (or (= |ULTIMATE.start_sll_circular_create_~new_head~0#1.base| |ULTIMATE.start_sll_circular_create_~last~0#1.base|) (forall ((v_ArrVal_388 Int) (v_ArrVal_384 (Array Int Int)) (v_ArrVal_398 (Array Int Int))) (let ((.cse0 (select (store (let ((.cse2 (store |c_#memory_int| |ULTIMATE.start_sll_circular_create_~new_head~0#1.base| v_ArrVal_384))) (store .cse2 |ULTIMATE.start_sll_circular_create_~last~0#1.base| (store (select .cse2 |ULTIMATE.start_sll_circular_create_~last~0#1.base|) |c_ULTIMATE.start_sll_circular_create_~last~0#1.offset| v_ArrVal_388))) |ULTIMATE.start_sll_circular_create_~new_head~0#1.base| v_ArrVal_398) |c_ULTIMATE.start_sll_circular_create_~head~0#1.base|))) (or (= (select .cse0 8) |c_ULTIMATE.start_main_~data_init~0#1|) (= (select .cse0 .cse1) |c_ULTIMATE.start_main_~data_init~0#1|) (= (select v_ArrVal_398 8) |c_ULTIMATE.start_main_~data_init~0#1|)))))))) (or (= |c_ULTIMATE.start_sll_circular_create_~head~0#1.offset| 0) (and (or (and (forall ((v_ArrVal_388 Int) (v_ArrVal_384 (Array Int Int)) (|ULTIMATE.start_sll_circular_create_~last~0#1.base| Int) (|ULTIMATE.start_sll_circular_create_~new_head~0#1.base| Int) (v_ArrVal_398 (Array Int Int))) (let ((.cse3 (select (store (let ((.cse4 (store |c_#memory_int| |ULTIMATE.start_sll_circular_create_~new_head~0#1.base| v_ArrVal_384))) (store .cse4 |ULTIMATE.start_sll_circular_create_~last~0#1.base| (store (select .cse4 |ULTIMATE.start_sll_circular_create_~last~0#1.base|) |c_ULTIMATE.start_sll_circular_create_~last~0#1.offset| v_ArrVal_388))) |ULTIMATE.start_sll_circular_create_~new_head~0#1.base| v_ArrVal_398) |c_ULTIMATE.start_sll_circular_create_~head~0#1.base|))) (or (= (select .cse3 8) |c_ULTIMATE.start_main_~data_init~0#1|) (= (select .cse3 .cse1) |c_ULTIMATE.start_main_~data_init~0#1|) (= (select v_ArrVal_398 8) |c_ULTIMATE.start_main_~data_init~0#1|)))) (forall ((v_ArrVal_388 Int) (v_ArrVal_384 (Array Int Int)) (|ULTIMATE.start_sll_circular_create_~last~0#1.base| Int) (|ULTIMATE.start_sll_circular_create_~new_head~0#1.base| Int) (v_ArrVal_398 (Array Int Int))) (= (select (select (store (let ((.cse5 (store |c_#memory_int| |ULTIMATE.start_sll_circular_create_~new_head~0#1.base| v_ArrVal_384))) (store .cse5 |ULTIMATE.start_sll_circular_create_~last~0#1.base| (store (select .cse5 |ULTIMATE.start_sll_circular_create_~last~0#1.base|) |c_ULTIMATE.start_sll_circular_create_~last~0#1.offset| v_ArrVal_388))) |ULTIMATE.start_sll_circular_create_~new_head~0#1.base| v_ArrVal_398) |c_ULTIMATE.start_sll_circular_create_~head~0#1.base|) .cse1) |c_ULTIMATE.start_main_~data_init~0#1|)) (forall ((v_ArrVal_388 Int) (v_ArrVal_384 (Array Int Int)) (|ULTIMATE.start_sll_circular_create_~last~0#1.base| Int) (|ULTIMATE.start_sll_circular_create_~new_head~0#1.base| Int) (v_ArrVal_398 (Array Int Int))) (let ((.cse6 (select (store (let ((.cse7 (store |c_#memory_int| |ULTIMATE.start_sll_circular_create_~new_head~0#1.base| v_ArrVal_384))) (store .cse7 |ULTIMATE.start_sll_circular_create_~last~0#1.base| (store (select .cse7 |ULTIMATE.start_sll_circular_create_~last~0#1.base|) |c_ULTIMATE.start_sll_circular_create_~last~0#1.offset| v_ArrVal_388))) |ULTIMATE.start_sll_circular_create_~new_head~0#1.base| v_ArrVal_398) |c_ULTIMATE.start_sll_circular_create_~head~0#1.base|))) (or (= (select .cse6 8) |c_ULTIMATE.start_main_~data_init~0#1|) (= (select .cse6 .cse1) |c_ULTIMATE.start_main_~data_init~0#1|))))) .cse8) (forall ((|ULTIMATE.start_sll_circular_create_~last~0#1.base| Int) (|ULTIMATE.start_sll_circular_create_~new_head~0#1.base| Int)) (or (= |ULTIMATE.start_sll_circular_create_~new_head~0#1.base| |ULTIMATE.start_sll_circular_create_~last~0#1.base|) (forall ((v_ArrVal_388 Int) (v_ArrVal_384 (Array Int Int)) (v_ArrVal_398 (Array Int Int))) (let ((.cse9 (select (store (let ((.cse10 (store |c_#memory_int| |ULTIMATE.start_sll_circular_create_~new_head~0#1.base| v_ArrVal_384))) (store .cse10 |ULTIMATE.start_sll_circular_create_~last~0#1.base| (store (select .cse10 |ULTIMATE.start_sll_circular_create_~last~0#1.base|) |c_ULTIMATE.start_sll_circular_create_~last~0#1.offset| v_ArrVal_388))) |ULTIMATE.start_sll_circular_create_~new_head~0#1.base| v_ArrVal_398) |c_ULTIMATE.start_sll_circular_create_~head~0#1.base|))) (or (= (select .cse9 8) |c_ULTIMATE.start_main_~data_init~0#1|) (= (select .cse9 .cse1) |c_ULTIMATE.start_main_~data_init~0#1|)))))) (forall ((|ULTIMATE.start_sll_circular_create_~last~0#1.base| Int) (|ULTIMATE.start_sll_circular_create_~new_head~0#1.base| Int)) (or (= |ULTIMATE.start_sll_circular_create_~new_head~0#1.base| |ULTIMATE.start_sll_circular_create_~last~0#1.base|) (forall ((v_ArrVal_388 Int) (v_ArrVal_384 (Array Int Int)) (v_ArrVal_398 (Array Int Int))) (let ((.cse11 (select (store (let ((.cse12 (store |c_#memory_int| |ULTIMATE.start_sll_circular_create_~new_head~0#1.base| v_ArrVal_384))) (store .cse12 |ULTIMATE.start_sll_circular_create_~last~0#1.base| (store (select .cse12 |ULTIMATE.start_sll_circular_create_~last~0#1.base|) |c_ULTIMATE.start_sll_circular_create_~last~0#1.offset| v_ArrVal_388))) |ULTIMATE.start_sll_circular_create_~new_head~0#1.base| v_ArrVal_398) |c_ULTIMATE.start_sll_circular_create_~head~0#1.base|))) (or (= (select .cse11 8) |c_ULTIMATE.start_main_~data_init~0#1|) (= (select .cse11 .cse1) |c_ULTIMATE.start_main_~data_init~0#1|) (= (select v_ArrVal_398 8) |c_ULTIMATE.start_main_~data_init~0#1|)))))) (forall ((|ULTIMATE.start_sll_circular_create_~last~0#1.base| Int) (|ULTIMATE.start_sll_circular_create_~new_head~0#1.base| Int)) (or (= |ULTIMATE.start_sll_circular_create_~new_head~0#1.base| |ULTIMATE.start_sll_circular_create_~last~0#1.base|) (forall ((v_ArrVal_388 Int) (v_ArrVal_384 (Array Int Int)) (v_ArrVal_398 (Array Int Int))) (= (select (select (store (let ((.cse13 (store |c_#memory_int| |ULTIMATE.start_sll_circular_create_~new_head~0#1.base| v_ArrVal_384))) (store .cse13 |ULTIMATE.start_sll_circular_create_~last~0#1.base| (store (select .cse13 |ULTIMATE.start_sll_circular_create_~last~0#1.base|) |c_ULTIMATE.start_sll_circular_create_~last~0#1.offset| v_ArrVal_388))) |ULTIMATE.start_sll_circular_create_~new_head~0#1.base| v_ArrVal_398) |c_ULTIMATE.start_sll_circular_create_~head~0#1.base|) .cse1) |c_ULTIMATE.start_main_~data_init~0#1|)))))) (or .cse8 (and (forall ((|ULTIMATE.start_sll_circular_create_~new_head~0#1.base| Int)) (or (forall ((v_ArrVal_388 Int) (v_ArrVal_384 (Array Int Int)) (|ULTIMATE.start_sll_circular_create_~last~0#1.base| Int) (v_ArrVal_398 (Array Int Int))) (let ((.cse14 (select (store (let ((.cse15 (store |c_#memory_int| |ULTIMATE.start_sll_circular_create_~new_head~0#1.base| v_ArrVal_384))) (store .cse15 |ULTIMATE.start_sll_circular_create_~last~0#1.base| (store (select .cse15 |ULTIMATE.start_sll_circular_create_~last~0#1.base|) |c_ULTIMATE.start_sll_circular_create_~last~0#1.offset| v_ArrVal_388))) |ULTIMATE.start_sll_circular_create_~new_head~0#1.base| v_ArrVal_398) |c_ULTIMATE.start_sll_circular_create_~head~0#1.base|))) (or (= (select .cse14 8) |c_ULTIMATE.start_main_~data_init~0#1|) (= (select .cse14 .cse1) |c_ULTIMATE.start_main_~data_init~0#1|) (= (select v_ArrVal_398 8) |c_ULTIMATE.start_main_~data_init~0#1|)))) (= |ULTIMATE.start_sll_circular_create_~new_head~0#1.base| |c_ULTIMATE.start_sll_circular_create_~head~0#1.base|))) (forall ((|ULTIMATE.start_sll_circular_create_~new_head~0#1.base| Int)) (or (= |ULTIMATE.start_sll_circular_create_~new_head~0#1.base| |c_ULTIMATE.start_sll_circular_create_~head~0#1.base|) (forall ((v_ArrVal_388 Int) (v_ArrVal_384 (Array Int Int)) (|ULTIMATE.start_sll_circular_create_~last~0#1.base| Int) (v_ArrVal_398 (Array Int Int))) (= (select (select (store (let ((.cse16 (store |c_#memory_int| |ULTIMATE.start_sll_circular_create_~new_head~0#1.base| v_ArrVal_384))) (store .cse16 |ULTIMATE.start_sll_circular_create_~last~0#1.base| (store (select .cse16 |ULTIMATE.start_sll_circular_create_~last~0#1.base|) |c_ULTIMATE.start_sll_circular_create_~last~0#1.offset| v_ArrVal_388))) |ULTIMATE.start_sll_circular_create_~new_head~0#1.base| v_ArrVal_398) |c_ULTIMATE.start_sll_circular_create_~head~0#1.base|) .cse1) |c_ULTIMATE.start_main_~data_init~0#1|)))) (forall ((|ULTIMATE.start_sll_circular_create_~new_head~0#1.base| Int)) (or (forall ((v_ArrVal_388 Int) (v_ArrVal_384 (Array Int Int)) (|ULTIMATE.start_sll_circular_create_~last~0#1.base| Int) (v_ArrVal_398 (Array Int Int))) (let ((.cse17 (select (store (let ((.cse18 (store |c_#memory_int| |ULTIMATE.start_sll_circular_create_~new_head~0#1.base| v_ArrVal_384))) (store .cse18 |ULTIMATE.start_sll_circular_create_~last~0#1.base| (store (select .cse18 |ULTIMATE.start_sll_circular_create_~last~0#1.base|) |c_ULTIMATE.start_sll_circular_create_~last~0#1.offset| v_ArrVal_388))) |ULTIMATE.start_sll_circular_create_~new_head~0#1.base| v_ArrVal_398) |c_ULTIMATE.start_sll_circular_create_~head~0#1.base|))) (or (= (select .cse17 8) |c_ULTIMATE.start_main_~data_init~0#1|) (= (select .cse17 .cse1) |c_ULTIMATE.start_main_~data_init~0#1|)))) (= |ULTIMATE.start_sll_circular_create_~new_head~0#1.base| |c_ULTIMATE.start_sll_circular_create_~head~0#1.base|))))) (forall ((|ULTIMATE.start_sll_circular_create_~new_head~0#1.base| Int)) (or (= |ULTIMATE.start_sll_circular_create_~new_head~0#1.base| |c_ULTIMATE.start_sll_circular_create_~head~0#1.base|) (forall ((|ULTIMATE.start_sll_circular_create_~last~0#1.base| Int)) (or (= |ULTIMATE.start_sll_circular_create_~new_head~0#1.base| |ULTIMATE.start_sll_circular_create_~last~0#1.base|) (forall ((v_ArrVal_388 Int) (v_ArrVal_384 (Array Int Int)) (v_ArrVal_398 (Array Int Int))) (= (select (select (store (let ((.cse19 (store |c_#memory_int| |ULTIMATE.start_sll_circular_create_~new_head~0#1.base| v_ArrVal_384))) (store .cse19 |ULTIMATE.start_sll_circular_create_~last~0#1.base| (store (select .cse19 |ULTIMATE.start_sll_circular_create_~last~0#1.base|) |c_ULTIMATE.start_sll_circular_create_~last~0#1.offset| v_ArrVal_388))) |ULTIMATE.start_sll_circular_create_~new_head~0#1.base| v_ArrVal_398) |c_ULTIMATE.start_sll_circular_create_~head~0#1.base|) .cse1) |c_ULTIMATE.start_main_~data_init~0#1|)))))) (forall ((|ULTIMATE.start_sll_circular_create_~new_head~0#1.base| Int)) (or (forall ((|ULTIMATE.start_sll_circular_create_~last~0#1.base| Int)) (or (= |ULTIMATE.start_sll_circular_create_~new_head~0#1.base| |ULTIMATE.start_sll_circular_create_~last~0#1.base|) (forall ((v_ArrVal_388 Int) (v_ArrVal_384 (Array Int Int)) (v_ArrVal_398 (Array Int Int))) (let ((.cse20 (select (store (let ((.cse21 (store |c_#memory_int| |ULTIMATE.start_sll_circular_create_~new_head~0#1.base| v_ArrVal_384))) (store .cse21 |ULTIMATE.start_sll_circular_create_~last~0#1.base| (store (select .cse21 |ULTIMATE.start_sll_circular_create_~last~0#1.base|) |c_ULTIMATE.start_sll_circular_create_~last~0#1.offset| v_ArrVal_388))) |ULTIMATE.start_sll_circular_create_~new_head~0#1.base| v_ArrVal_398) |c_ULTIMATE.start_sll_circular_create_~head~0#1.base|))) (or (= (select .cse20 8) |c_ULTIMATE.start_main_~data_init~0#1|) (= (select .cse20 .cse1) |c_ULTIMATE.start_main_~data_init~0#1|)))))) (= |ULTIMATE.start_sll_circular_create_~new_head~0#1.base| |c_ULTIMATE.start_sll_circular_create_~head~0#1.base|))))))
(check-sat)
(exit)
